NAME : A-n34-k5-20
TYPE : VRP-D
DIMENSION : 20
CAPACITY : 100
NODE_COORD_SECTION 
 1 73 39
 2 67 91
 3 39 21
 4 3 9
 5 97 15
 6 91 65
 7 55 75
 8 55 71
 9 57 85
 10 21 15
 11 47 57
 12 51 97
 13 11 11
 14 43 59
 15 63 69
 16 55 77
 17 35 11
 18 27 91
 19 49 25
 20 29 93
DEMAND_SECTION 
1 0 
2 23 
3 3 
4 24 
5 15 
6 15 
7 24 
8 7 
9 25 
10 13 
11 5 
12 7 
13 5 
14 14 
15 13 
16 5 
17 24 
18 15 
19 9 
20 16 
DEPOT_SECTION 
 1  
 -1  
EOF 
